WARNING: for repeatability, setting FPU to use double precision
============================[ Problem Statistics ]=============================
|                                                                             |
|  Number of variables:            50                                         |
|  Number of clauses:             218                                         |
|  Parse time:                   0.00 s                                       |
|                                                                             |
============================[ Search Statistics ]==============================
| Conflicts |          ORIGINAL         |          LEARNT          | Progress |
|           |    Vars  Clauses Literals |    Limit  Clauses Lit/Cl |          |
===============================================================================
===============================================================================
restarts              : 1
conflicts             : 58             (39110 /sec)
decisions             : 60             (0.00 % random) (40459 /sec)
propagations          : 782            (527310 /sec)
conflict literals     : 195            (25.86 % deleted)
Memory used           : 20.00 MB
CPU time              : 0.001483 s

UNSATISFIABLE
